

    points = {

    <90.00, 90.00>,
    <45.00, 45.00>,
    <30,20>,
    <20,-20>
    <45,0>,
    <-90,0>,
    <0,-90>,
    <90.00, 0.00>,
    <71.17, -156.47>,
    <64.51, -147.43>,
    <61.13, -149.53>,


    };
